c nIsolatedPIs 0
c maxPI 16
p cnf 89 220
c gate 17 4 -12 0
4 -17 0
-12 -17 0
-4 12 17 0
c gate 18 -4 12 0
-4 -18 0
12 -18 0
4 -12 18 0
c gate 19 -17 -18 0
-17 -19 0
-18 -19 0
17 18 19 0
c gate 20 -8 16 0
-8 -20 0
16 -20 0
8 -16 20 0
c gate 21 8 -16 0
8 -21 0
-16 -21 0
-8 16 21 0
c gate 22 7 -15 0
7 -22 0
-15 -22 0
-7 15 22 0
c gate 23 -21 -22 0
-21 -23 0
-22 -23 0
21 22 23 0
c gate 24 -7 15 0
-7 -24 0
15 -24 0
7 -15 24 0
c gate 25 6 -14 0
6 -25 0
-14 -25 0
-6 14 25 0
c gate 26 -6 14 0
-6 -26 0
14 -26 0
6 -14 26 0
c gate 27 5 -13 0
5 -27 0
-13 -27 0
-5 13 27 0
c gate 28 -26 27 0
-26 -28 0
27 -28 0
26 -27 28 0
c gate 29 -25 -28 0
-25 -29 0
-28 -29 0
25 28 29 0
c gate 30 -24 -29 0
-24 -30 0
-29 -30 0
24 29 30 0
c gate 31 23 -30 0
23 -31 0
-30 -31 0
-23 30 31 0
c gate 32 -20 -31 0
-20 -32 0
-31 -32 0
20 31 32 0
c gate 33 -3 11 0
-3 -33 0
11 -33 0
3 -11 33 0
c gate 34 3 -11 0
3 -34 0
-11 -34 0
-3 11 34 0
c gate 35 -2 10 0
-2 -35 0
10 -35 0
2 -10 35 0
c gate 36 2 -10 0
2 -36 0
-10 -36 0
-2 10 36 0
c gate 37 -35 -36 0
-35 -37 0
-36 -37 0
35 36 37 0
c gate 38 1 -9 0
1 -38 0
-9 -38 0
-1 9 38 0
c gate 39 37 -38 0
37 -39 0
-38 -39 0
-37 38 39 0
c gate 40 -35 -39 0
-35 -40 0
-39 -40 0
35 39 40 0
c gate 41 -1 9 0
-1 -41 0
9 -41 0
1 -9 41 0
c gate 42 39 -41 0
39 -42 0
-41 -42 0
-39 41 42 0
c gate 43 -40 -42 0
-40 -43 0
-42 -43 0
40 42 43 0
c gate 44 -34 43 0
-34 -44 0
43 -44 0
34 -43 44 0
c gate 45 -33 -44 0
-33 -45 0
-44 -45 0
33 44 45 0
c gate 46 32 -45 0
32 -46 0
-45 -46 0
-32 45 46 0
c gate 47 -34 -40 0
-34 -47 0
-40 -47 0
34 40 47 0
c gate 48 -33 -47 0
-33 -48 0
-47 -48 0
33 47 48 0
c gate 49 -32 48 0
-32 -49 0
48 -49 0
32 -48 49 0
c gate 50 -46 -49 0
-46 -50 0
-49 -50 0
46 49 50 0
c gate 51 19 -50 0
19 -51 0
-50 -51 0
-19 50 51 0
c gate 52 -19 50 0
-19 -52 0
50 -52 0
19 -50 52 0
c gate 53 -51 -52 0
-51 -53 0
-52 -53 0
51 52 53 0
c gate 54 -17 -48 0
-17 -54 0
-48 -54 0
17 48 54 0
c gate 55 -20 -24 0
-20 -55 0
-24 -55 0
20 24 55 0
c gate 56 -5 13 0
-5 -56 0
13 -56 0
5 -13 56 0
c gate 57 -26 -56 0
-26 -57 0
-56 -57 0
26 56 57 0
c gate 58 55 57 0
55 -58 0
57 -58 0
-55 -57 58 0
c gate 59 23 58 0
23 -59 0
58 -59 0
-23 -58 59 0
c gate 60 29 59 0
29 -60 0
59 -60 0
-29 -59 60 0
c gate 61 -18 60 0
-18 -61 0
60 -61 0
18 -60 61 0
c gate 62 -54 61 0
-54 -62 0
61 -62 0
54 -61 62 0
c gate 63 -32 -62 0
-32 -63 0
-62 -63 0
32 62 63 0
c gate 64 -33 -34 0
-33 -64 0
-34 -64 0
33 34 64 0
c gate 65 19 64 0
19 -65 0
64 -65 0
-19 -64 65 0
c gate 66 42 65 0
42 -66 0
65 -66 0
-42 -65 66 0
c gate 67 60 66 0
60 -67 0
66 -67 0
-60 -66 67 0
c gate 68 -63 -67 0
-63 -68 0
-67 -68 0
63 67 68 0
c gate 69 -45 68 0
-45 -69 0
68 -69 0
45 -68 69 0
c gate 70 48 -68 0
48 -70 0
-68 -70 0
-48 68 70 0
c gate 71 -69 -70 0
-69 -71 0
-70 -71 0
69 70 71 0
c gate 72 19 -71 0
19 -72 0
-71 -72 0
-19 71 72 0
c gate 73 -19 71 0
-19 -73 0
71 -73 0
19 -71 73 0
c gate 74 -72 -73 0
-72 -74 0
-73 -74 0
72 73 74 0
c gate 75 -53 74 0
-53 -75 0
74 -75 0
53 -74 75 0
c gate 76 53 -74 0
53 -76 0
-74 -76 0
-53 74 76 0
c gate 77 -75 -76 0
-75 -77 0
-76 -77 0
75 76 77 0
c gate 78 -40 -68 0
-40 -78 0
-68 -78 0
40 68 78 0
c gate 79 -43 68 0
-43 -79 0
68 -79 0
43 -68 79 0
c gate 80 -78 -79 0
-78 -80 0
-79 -80 0
78 79 80 0
c gate 81 -32 -40 0
-32 -81 0
-40 -81 0
32 40 81 0
c gate 82 32 -43 0
32 -82 0
-43 -82 0
-32 43 82 0
c gate 83 -81 -82 0
-81 -83 0
-82 -83 0
81 82 83 0
c gate 84 64 -83 0
64 -84 0
-83 -84 0
-64 83 84 0
c gate 85 80 84 0
80 -85 0
84 -85 0
-80 -84 85 0
c gate 86 -64 83 0
-64 -86 0
83 -86 0
64 -83 86 0
c gate 87 -80 86 0
-80 -87 0
86 -87 0
80 -86 87 0
c gate 88 -85 -87 0
-85 -88 0
-87 -88 0
85 87 88 0
c gate 89 -77 88 0
-77 -89 0
88 -89 0
77 -88 89 0
c PO
89 0
